N = 15;
K = 2;
R = 4;
S = 2;

lambda = [ 4, 6 ];
ksi = [ 7, 3 ];
% ksi is multiplied by 10 to have integer values

C = [|7, 8, |9, 12, |13, 14, |];
P = [|2, 1, |5, 6, |3, 11, |8, 9, |13, 15, |];
Cap = [| 1300, 1450, 158, 2200,
| 1046, 1300, 65, 1750, |];
r = [| 150, 120, 20, 1000, | 75, 10, 8, 200, | 400, 100, 20, 200, | 450, 100, 40, 0, | 100, 500, 40, 0, | 200, 400, 25, 25, | 50, 250, 20, 500, | 60, 120, 19, 200, | 280, 150, 40, 1500, | 200, 300, 40, 500, | 250, 375, 50, 150, | 100, 300, 25, 50, | 100, 250, 20, 50, | 0, 100, 15, 0, | 200, 150, 10, 0, |];
% ... etcetera
value = [| 6, 7, 9, 5, 3, 9, 5, 7, 6, 2, 1, 3, 7, 8, 1, | 2, 5, 3, 7, 2, 3, 3, 1, 5, 1, 5, 7, 9, 3, 5|];
% ... etcetera
urgency = array3d(1..S, 1..N, 1..3, [
% stakeholder 1
5, 4, 0,
5, 0, 4,
9, 0, 0,
2, 7, 0,
7, 2, 0,
7, 2, 0,
9, 0, 0,
8, 1, 0,
9, 0, 0,
5, 4, 0,
8, 1, 0,
9, 0, 0,
9, 0, 0,
9, 0, 0,
0, 0, 9,
% stakeholder 2
0, 3, 6,
9, 0, 0,
2, 7, 0,
7, 2, 0,
9, 0, 0,
5, 4, 0,
2, 7, 0,
0, 0, 9,
0, 8, 1,
0, 0, 9,
0, 7, 2,
0, 6, 3,
9, 0, 0,
6, 3, 0,
3, 6, 0]);